227,175
633,371
293,688
539,360
681,376
708,321
721,486
1066,467
635,110
539,360
668,380
231,406
681,556
737,761
450,860
947,599
1001,569
841,487
649,613
436,887
561,776
875,265
998,-30
858,59
668,380
512,529
448,639
200,651
649,613
633,441
727,264
956,131
1093,107
948,542
727,264
735,300
795,369
702,427
875,265
858,59
364,-30
417,42
1080,535
947,599
